Maximize
  0 x0 - 15 x1 + 0 x2 + 42 x3 - 12 x4 + 0 x5 - 13 x6 + 0 x7 + 0 x8 + 0 x9
   + 11 x10 - 29 x11 + 12 x12 - 35 x13 + 0 x14 + 0 x15 + 0 x16 - 17 x17
   + 11 x18 + 0 x19 + 0 x20 + 0 x21 - 34 x22 + 24 x23 + 13 x24 - 30 x25
   + 0 x26 + 20 x27 - 5 x28 + 0 x29 + 0 x30 + 0 x31 - 46 x32 + 0 x33
   + 0 x34 + 0 x35 + 0 x36 + 45 x37 + 0 x38 + 0 x39 + 43 x40 - 8 x41
   + 38 x42 - x43 - 32 x44 + 0 x45 + 0 x46 + 0 x47 + 26 x48 + 0 x49 + 0 x50
   + 0 x51 + 34 x52 + 0 x53 - 47 x54 - 42 x55 + 0 x56 - 30 x57 - 15 x58
   + 19 x59 - 31 x60 + 0 x61 + 0 x62 + 0 x63 + 0 x64 - 27 x65 + 47 x66
   + 15 x67 - 19 x68 + 0 x69 - 32 x70 + 0 x71 - 20 x72 + 0 x73 + 0 x74
   + 0 x75 + 0 x76 + 0 x77 - 18 x78 + x79 + [ - 29 x0 ^2 + 82 x0 * x2
   + 28 x0 * x5 + 86 x0 * x6 - 30 x0 * x7 - 74 x0 * x10 - 14 x0 * x11
   - 58 x0 * x14 + 86 x0 * x18 + 80 x0 * x27 + 76 x0 * x29 - 92 x0 * x31
   - 40 x0 * x32 - 44 x0 * x34 + 10 x0 * x36 + 72 x0 * x37 + 28 x0 * x39
   - 10 x0 * x40 + 56 x0 * x43 - 92 x0 * x44 + 44 x0 * x45 + 10 x0 * x46
   + 56 x0 * x48 + 52 x0 * x51 + 16 x0 * x55 - 24 x0 * x56 + 72 x0 * x57
   + 42 x0 * x61 - 62 x0 * x62 - 88 x0 * x63 - 98 x0 * x64 - 26 x0 * x68
   + 80 x0 * x73 + 52 x0 * x74 - 90 x0 * x76 - 36 x0 * x77 + 96 x0 * x78
   - 18 x0 * x79 + 74 x1 * x2 + 42 x1 * x5 - 98 x1 * x6 + 78 x1 * x7
   + 54 x1 * x11 + 48 x1 * x14 - 92 x1 * x15 + 68 x1 * x16 + 44 x1 * x17
   - 70 x1 * x18 - 80 x1 * x19 + 80 x1 * x22 - 62 x1 * x24 + 8 x1 * x28
   - 46 x1 * x29 - 20 x1 * x31 + 86 x1 * x33 - 8 x1 * x35 - 8 x1 * x36
   - 88 x1 * x37 + 12 x1 * x38 - 84 x1 * x39 + 78 x1 * x40 + 16 x1 * x44
   + 6 x1 * x45 + 34 x1 * x49 + 58 x1 * x50 + 76 x1 * x51 - 80 x1 * x52
   - 26 x1 * x53 - 84 x1 * x54 + 50 x1 * x57 - 72 x1 * x59 - 20 x1 * x61
   + 54 x1 * x62 + 4 x1 * x64 - 98 x1 * x65 + 56 x1 * x67 - 2 x1 * x72
   + 58 x1 * x78 - 86 x2 * x3 + 76 x2 * x5 - 34 x2 * x7 + 90 x2 * x8
   + 58 x2 * x9 - 38 x2 * x12 + 22 x2 * x13 - 22 x2 * x16 - 54 x2 * x21
   + 48 x2 * x23 + 92 x2 * x30 - 92 x2 * x35 - 40 x2 * x36 - 14 x2 * x39
   + 10 x2 * x42 - 78 x2 * x47 - 82 x2 * x48 - 76 x2 * x50 + 40 x2 * x51
   - 74 x2 * x56 - 34 x2 * x57 - 46 x2 * x59 - 66 x2 * x62 + 76 x2 * x68
   - 14 x2 * x71 + 98 x2 * x74 - 38 x2 * x75 - 94 x2 * x78 + 84 x3 * x4
   - 30 x3 * x5 - 62 x3 * x10 - 80 x3 * x11 + 96 x3 * x12 + 62 x3 * x16
   + 36 x3 * x20 + 24 x3 * x21 - 54 x3 * x22 + 8 x3 * x23 - 14 x3 * x26
   - 22 x3 * x27 + 72 x3 * x28 + 10 x3 * x29 - 88 x3 * x30 - 68 x3 * x31
   - 10 x3 * x32 - 36 x3 * x33 - 64 x3 * x35 + 86 x3 * x38 - 72 x3 * x40
   - 48 x3 * x41 - 58 x3 * x42 + 64 x3 * x47 + 70 x3 * x49 - 6 x3 * x50
   - 56 x3 * x51 + 34 x3 * x54 - 10 x3 * x55 + 8 x3 * x57 - 46 x3 * x61
   - 70 x3 * x64 - 78 x3 * x65 + 34 x3 * x66 - 54 x3 * x67 - 30 x3 * x68
   + 22 x3 * x72 + 58 x3 * x74 + 96 x4 * x6 - 94 x4 * x7 + 46 x4 * x8
   + 94 x4 * x10 + 70 x4 * x11 + 8 x4 * x12 + 80 x4 * x14 - 24 x4 * x15
   - 96 x4 * x17 + 8 x4 * x20 - 14 x4 * x21 - 52 x4 * x23 + 2 x4 * x24
   - 66 x4 * x25 - 56 x4 * x26 - 40 x4 * x27 + 96 x4 * x29 + 96 x4 * x30
   - 18 x4 * x33 + 32 x4 * x34 - 78 x4 * x35 + 18 x4 * x36 - 28 x4 * x37
   - 52 x4 * x38 - 46 x4 * x39 + 8 x4 * x45 - 26 x4 * x46 - 6 x4 * x49
   + 62 x4 * x51 - 92 x4 * x52 + 44 x4 * x53 - 98 x4 * x63 - 66 x4 * x64
   - 64 x4 * x68 - 32 x4 * x69 + 64 x4 * x70 - 72 x4 * x71 + 80 x4 * x72
   + 32 x4 * x74 + 78 x4 * x77 + 86 x5 * x6 - 20 x5 * x9 + 50 x5 * x10
   + 74 x5 * x11 + 44 x5 * x12 - 94 x5 * x14 + 38 x5 * x15 - 98 x5 * x16
   - 96 x5 * x18 + 86 x5 * x19 + 52 x5 * x20 + 62 x5 * x21 - 98 x5 * x22
   + 34 x5 * x24 - 36 x5 * x25 - 32 x5 * x29 + 16 x5 * x31 + 48 x5 * x35
   - 94 x5 * x37 + 54 x5 * x38 - 86 x5 * x39 - 18 x5 * x42 - 8 x5 * x43
   + 44 x5 * x44 + 4 x5 * x45 + 64 x5 * x46 - 8 x5 * x47 - 28 x5 * x50
   - 82 x5 * x51 - 18 x5 * x53 - 60 x5 * x54 + 80 x5 * x55 + 30 x5 * x57
   - 24 x5 * x62 - 28 x5 * x65 + 8 x5 * x66 - 58 x5 * x67 + 76 x5 * x68
   + 12 x5 * x70 + 98 x5 * x71 - 28 x5 * x72 - 78 x5 * x74 - 4 x5 * x75
   - 80 x5 * x76 - 46 x5 * x78 + 45 x6 ^2 - 96 x6 * x8 + 66 x6 * x14
   + 42 x6 * x15 - 80 x6 * x16 - 22 x6 * x17 + 50 x6 * x19 + 18 x6 * x21
   + 38 x6 * x23 + 66 x6 * x25 + 12 x6 * x28 - 32 x6 * x29 - 24 x6 * x30
   + 62 x6 * x33 + 14 x6 * x34 + 66 x6 * x35 - 24 x6 * x39 - 94 x6 * x40
   + 82 x6 * x41 + 48 x6 * x42 - 70 x6 * x43 - 60 x6 * x44 - 96 x6 * x45
   - 60 x6 * x48 + 52 x6 * x51 - 80 x6 * x52 - 62 x6 * x56 + 10 x6 * x57
   + 86 x6 * x66 - 64 x6 * x72 - 60 x6 * x74 - 58 x6 * x76 - 2 x6 * x78
   + 30 x7 ^2 - 98 x7 * x8 - 68 x7 * x11 - 44 x7 * x12 - 38 x7 * x14
   - 18 x7 * x18 + 6 x7 * x19 - 10 x7 * x20 - 98 x7 * x21 + 74 x7 * x28
   - 20 x7 * x29 - 14 x7 * x32 + 84 x7 * x34 - 86 x7 * x36 - 56 x7 * x37
   + 90 x7 * x39 - 78 x7 * x42 + 88 x7 * x45 - 84 x7 * x47 - 40 x7 * x49
   + 8 x7 * x51 - 66 x7 * x52 + 62 x7 * x54 - 30 x7 * x55 + 38 x7 * x56
   - 44 x7 * x57 - 18 x7 * x59 + 42 x7 * x61 - 44 x7 * x63 - 32 x7 * x65
   + 66 x7 * x67 + 98 x7 * x68 + 36 x7 * x69 + 78 x7 * x71 + 80 x7 * x73
   + 26 x7 * x74 + 14 x7 * x75 + 50 x7 * x79 + 21 x8 ^2 + 68 x8 * x9
   - 12 x8 * x10 + 92 x8 * x12 - 66 x8 * x13 - 50 x8 * x14 + 78 x8 * x15
   - 88 x8 * x19 + 84 x8 * x23 + 58 x8 * x24 - 90 x8 * x26 - 82 x8 * x27
   - 66 x8 * x32 + 18 x8 * x33 + 78 x8 * x34 - 12 x8 * x37 - 2 x8 * x40
   - 8 x8 * x41 - 82 x8 * x45 - 68 x8 * x46 - 38 x8 * x47 - 56 x8 * x48
   - 62 x8 * x51 - 78 x8 * x53 + 76 x8 * x54 + 60 x8 * x55 + 26 x8 * x58
   + 10 x8 * x60 + 56 x8 * x65 + 94 x8 * x68 + 72 x8 * x69 - 70 x8 * x74
   - 96 x8 * x75 - 12 x8 * x77 + 28 x9 ^2 - 20 x9 * x12 - 94 x9 * x14
   - 98 x9 * x17 - 68 x9 * x18 - 30 x9 * x21 + 52 x9 * x22 + 18 x9 * x26
   - 56 x9 * x29 - 52 x9 * x31 + 72 x9 * x32 + 16 x9 * x34 + 50 x9 * x35
   + 36 x9 * x39 + 98 x9 * x40 + 16 x9 * x41 + 6 x9 * x42 + 64 x9 * x43
   - 20 x9 * x44 - 92 x9 * x45 + 92 x9 * x46 + 22 x9 * x50 - 74 x9 * x51
   + 62 x9 * x52 + 58 x9 * x53 - 86 x9 * x54 - 16 x9 * x56 + 40 x9 * x57
   - 74 x9 * x62 + 80 x9 * x63 - 78 x9 * x65 - 8 x9 * x68 - 46 x9 * x70
   - 2 x9 * x71 - 36 x9 * x73 - 98 x9 * x75 - 28 x9 * x76 + 14 x9 * x78
   - 80 x9 * x79 - 14 x10 * x11 - 62 x10 * x13 + 42 x10 * x14
   + 68 x10 * x16 + 14 x10 * x23 - 58 x10 * x24 + 84 x10 * x25
   - 70 x10 * x27 + 36 x10 * x28 + 6 x10 * x33 + 40 x10 * x34
   - 66 x10 * x36 - 56 x10 * x41 + 54 x10 * x43 + 26 x10 * x44
   + 34 x10 * x47 - 6 x10 * x51 + 36 x10 * x53 - 92 x10 * x67
   + 24 x10 * x69 - 8 x10 * x71 - 62 x10 * x73 - 2 x10 * x74 + 98 x10 * x77
   - 40 x11 ^2 - 46 x11 * x12 + 40 x11 * x13 + 4 x11 * x14 + 14 x11 * x15
   + 50 x11 * x16 - 16 x11 * x17 - 96 x11 * x24 + 64 x11 * x28
   + 66 x11 * x29 + 54 x11 * x30 - 38 x11 * x32 + 48 x11 * x34
   + 2 x11 * x36 - 80 x11 * x38 + 96 x11 * x44 - 38 x11 * x48
   + 78 x11 * x49 + 70 x11 * x50 + 84 x11 * x51 - 14 x11 * x52
   - 70 x11 * x55 - 50 x11 * x60 + 60 x11 * x63 - 40 x11 * x64
   + 84 x11 * x66 + 44 x11 * x67 - 16 x11 * x68 + 16 x11 * x69
   + 90 x11 * x70 + 74 x11 * x71 + 80 x11 * x79 + 12 x12 * x13
   + 56 x12 * x16 - 76 x12 * x17 - 94 x12 * x18 - 28 x12 * x21
   + 46 x12 * x22 + 30 x12 * x23 - 98 x12 * x25 + 72 x12 * x27
   + 84 x12 * x28 + 46 x12 * x29 + 20 x12 * x33 - 94 x12 * x35
   - 78 x12 * x37 - 12 x12 * x38 + 56 x12 * x41 - 32 x12 * x42
   - 22 x12 * x43 - 12 x12 * x46 - 32 x12 * x47 + 34 x12 * x49
   - 54 x12 * x52 + 70 x12 * x53 - 92 x12 * x54 - 24 x12 * x55
   + 34 x12 * x57 + 2 x12 * x63 - 22 x12 * x66 + 40 x12 * x74
   + 22 x12 * x76 - 28 x12 * x78 + 2 x13 ^2 - 64 x13 * x14 + 54 x13 * x15
   - 80 x13 * x16 - 20 x13 * x17 - 4 x13 * x20 - 98 x13 * x21
   - 26 x13 * x22 - 32 x13 * x23 + 18 x13 * x25 + 68 x13 * x31
   + 70 x13 * x32 + 56 x13 * x37 - 16 x13 * x39 + 38 x13 * x41
   - 10 x13 * x42 + 84 x13 * x43 - 90 x13 * x45 - 14 x13 * x48
   + 16 x13 * x49 + 20 x13 * x50 + 66 x13 * x55 + 8 x13 * x56
   - 90 x13 * x59 + 20 x13 * x62 - 84 x13 * x63 - 24 x13 * x64
   - 24 x13 * x66 + 92 x13 * x67 - 82 x13 * x70 - 80 x13 * x72
   + 16 x13 * x75 + 90 x13 * x77 - 28 x13 * x79 - 24 x14 ^2 - 86 x14 * x17
   + 2 x14 * x18 + 12 x14 * x21 + 68 x14 * x25 + 64 x14 * x27
   - 80 x14 * x30 + 32 x14 * x31 - 8 x14 * x32 + 36 x14 * x34
   - 86 x14 * x35 - 2 x14 * x36 - 82 x14 * x38 - 94 x14 * x39
   - 84 x14 * x43 - 28 x14 * x46 + 10 x14 * x48 + 18 x14 * x53
   + 20 x14 * x54 - 50 x14 * x56 - 92 x14 * x66 + 6 x14 * x67
   - 92 x14 * x68 - 16 x14 * x71 + 72 x14 * x72 + 60 x14 * x75
   - 14 x14 * x76 + 56 x14 * x77 + 6 x14 * x79 - 22 x15 ^2 + 4 x15 * x16
   + 4 x15 * x19 + 46 x15 * x22 - 20 x15 * x26 + 38 x15 * x27
   - 12 x15 * x29 - 36 x15 * x34 + 44 x15 * x39 - 58 x15 * x40
   + 60 x15 * x41 + 74 x15 * x43 + 56 x15 * x45 + 30 x15 * x49
   - 96 x15 * x50 - 20 x15 * x53 - 88 x15 * x55 + 10 x15 * x56
   + 78 x15 * x58 + 98 x15 * x59 - 84 x15 * x60 + 16 x15 * x62
   + 28 x15 * x64 + 20 x15 * x68 + 98 x15 * x72 - 22 x15 * x75
   + 34 x15 * x78 - 66 x15 * x79 - 78 x16 * x17 - 60 x16 * x19
   - 98 x16 * x20 - 28 x16 * x21 + 68 x16 * x22 + 22 x16 * x25
   + 88 x16 * x31 - 16 x16 * x34 - 34 x16 * x38 + 60 x16 * x40
   + 70 x16 * x42 - 4 x16 * x44 - 48 x16 * x47 - 4 x16 * x49 - 82 x16 * x51
   + 22 x16 * x55 - 4 x16 * x57 + 76 x16 * x60 + 84 x16 * x61
   - 92 x16 * x65 + 26 x16 * x68 - 8 x16 * x69 + 20 x16 * x70
   - 64 x16 * x71 + 42 x16 * x73 - 78 x16 * x75 - 68 x16 * x76
   + 44 x16 * x77 + 38 x16 * x79 + 14 x17 * x18 - 30 x17 * x20
   - 54 x17 * x22 - 60 x17 * x23 + 62 x17 * x24 + 40 x17 * x25
   + 58 x17 * x27 + 48 x17 * x28 + 44 x17 * x32 + 94 x17 * x33
   - 18 x17 * x36 + 40 x17 * x37 + 10 x17 * x38 + 58 x17 * x39
   + 84 x17 * x40 + 38 x17 * x45 - 52 x17 * x51 + 42 x17 * x52
   + 52 x17 * x53 + 52 x17 * x54 + 44 x17 * x56 - 98 x17 * x58
   - 16 x17 * x60 + 16 x17 * x61 + 60 x17 * x62 - 44 x17 * x64
   + 88 x17 * x65 - 98 x17 * x68 + 52 x17 * x70 + 16 x17 * x74
   + 36 x17 * x75 + 40 x17 * x77 + 28 x17 * x78 + 78 x17 * x79
   - 30 x18 * x19 + 70 x18 * x21 + 28 x18 * x22 - 66 x18 * x25
   + 66 x18 * x26 + 32 x18 * x27 - 42 x18 * x29 - 74 x18 * x30
   + 86 x18 * x31 - 20 x18 * x32 + 40 x18 * x33 - 22 x18 * x35
   + 34 x18 * x36 + 86 x18 * x39 - 14 x18 * x41 + 60 x18 * x42
   + 34 x18 * x43 - 84 x18 * x45 + 88 x18 * x48 - 34 x18 * x50
   - 68 x18 * x51 - 86 x18 * x52 - 84 x18 * x57 + 74 x18 * x58
   - 12 x18 * x59 + 96 x18 * x60 + 8 x18 * x61 + 18 x18 * x62
   - 52 x18 * x63 + 24 x18 * x64 + 14 x18 * x65 + 22 x18 * x66
   + 54 x18 * x67 - 42 x18 * x68 + 20 x18 * x71 - 26 x18 * x73
   - 22 x18 * x74 + 84 x18 * x76 + 78 x18 * x78 + 25 x19 ^2 + 54 x19 * x20
   + 60 x19 * x21 + 88 x19 * x24 + 92 x19 * x28 - 24 x19 * x29
   - 8 x19 * x30 + 74 x19 * x32 + 58 x19 * x33 + 66 x19 * x34
   + 74 x19 * x35 + 18 x19 * x37 + 18 x19 * x38 - 14 x19 * x40
   + 16 x19 * x41 + 66 x19 * x42 + 4 x19 * x44 + 52 x19 * x45
   - 32 x19 * x48 + 34 x19 * x53 - 76 x19 * x54 - 46 x19 * x56
   - 86 x19 * x58 + 14 x19 * x59 + 20 x19 * x60 + 52 x19 * x62
   - 84 x19 * x63 - 42 x19 * x65 - 60 x19 * x69 - 26 x19 * x71
   - 56 x19 * x74 - 58 x19 * x76 + 42 x19 * x78 - 29 x20 ^2 - 16 x20 * x21
   + 6 x20 * x24 + 84 x20 * x25 - 24 x20 * x27 - 34 x20 * x29
   + 52 x20 * x30 - 92 x20 * x38 + 88 x20 * x39 + 6 x20 * x41 + 8 x20 * x44
   + 82 x20 * x45 + 20 x20 * x46 + 66 x20 * x48 - 88 x20 * x51
   - 94 x20 * x54 + 66 x20 * x57 - 76 x20 * x58 - 84 x20 * x59
   - 70 x20 * x60 - 76 x20 * x62 + 14 x20 * x65 + 4 x20 * x66
   + 80 x20 * x69 + 76 x20 * x70 - 80 x20 * x71 - 82 x20 * x76
   - 46 x20 * x78 + 2 x21 ^2 + 20 x21 * x22 + 54 x21 * x23 + 80 x21 * x25
   + 60 x21 * x26 - 42 x21 * x27 - 38 x21 * x29 + 8 x21 * x32
   - 66 x21 * x33 + 8 x21 * x38 + 76 x21 * x40 - 16 x21 * x44
   - 56 x21 * x48 + 16 x21 * x52 + 70 x21 * x54 - 62 x21 * x55
   + 58 x21 * x58 + 54 x21 * x59 - 12 x21 * x69 - 78 x21 * x70
   + 16 x21 * x71 - 60 x21 * x74 - 36 x21 * x78 - 54 x21 * x79 - 44 x22 ^2
   + 2 x22 * x24 - 68 x22 * x26 + 50 x22 * x27 + 18 x22 * x29
   - 48 x22 * x32 + 32 x22 * x36 + 22 x22 * x38 - 94 x22 * x41
   + 14 x22 * x46 - 16 x22 * x48 - 24 x22 * x50 + 32 x22 * x51
   - 80 x22 * x52 - 82 x22 * x53 - 76 x22 * x54 + 10 x22 * x55
   - 34 x22 * x60 - 30 x22 * x62 + 16 x22 * x63 - 82 x22 * x65
   - 62 x22 * x66 - 80 x22 * x67 - 82 x22 * x70 + 72 x22 * x72
   + 46 x22 * x76 - 74 x22 * x79 + 90 x23 * x26 - 50 x23 * x27
   - 92 x23 * x28 - 46 x23 * x32 - 78 x23 * x33 - 82 x23 * x35
   + 10 x23 * x37 + 2 x23 * x38 - 80 x23 * x40 - 84 x23 * x42
   - 78 x23 * x43 + 92 x23 * x44 - 40 x23 * x45 + 22 x23 * x46
   - 76 x23 * x47 - 38 x23 * x49 - 58 x23 * x50 - 98 x23 * x51
   + 32 x23 * x52 + 98 x23 * x56 + 44 x23 * x58 - 22 x23 * x60
   - 36 x23 * x61 + 74 x23 * x63 - 92 x23 * x66 - 32 x23 * x69
   - 54 x23 * x70 - 52 x23 * x71 + 44 x23 * x72 - 76 x23 * x73
   + 52 x23 * x75 + 52 x23 * x76 + 24 x24 * x26 + 64 x24 * x27
   + 36 x24 * x32 - 8 x24 * x35 + 94 x24 * x36 + 16 x24 * x37 + 2 x24 * x40
   + 86 x24 * x44 + 96 x24 * x46 + 96 x24 * x47 - 96 x24 * x48
   + 52 x24 * x49 - 56 x24 * x50 + 26 x24 * x52 - 2 x24 * x54
   + 24 x24 * x57 + 80 x24 * x58 - 78 x24 * x63 - 94 x24 * x69
   - 46 x24 * x71 + 2 x24 * x72 + 92 x24 * x74 - 32 x24 * x76
   - 68 x24 * x77 - 84 x25 * x27 + 14 x25 * x30 + 22 x25 * x31
   - 4 x25 * x32 + 92 x25 * x33 - 86 x25 * x34 - 24 x25 * x35 + 6 x25 * x36
   + 8 x25 * x37 - 88 x25 * x38 + 58 x25 * x39 - 16 x25 * x41
   - 44 x25 * x42 - 48 x25 * x43 + 92 x25 * x48 + 98 x25 * x49
   + 94 x25 * x51 + 72 x25 * x53 + 64 x25 * x55 + 28 x25 * x57
   + 80 x25 * x59 + 6 x25 * x60 + 8 x25 * x61 + 74 x25 * x64 - 78 x25 * x67
   + 84 x25 * x69 - 38 x25 * x73 + 66 x25 * x74 + 48 x25 * x75
   + 76 x25 * x76 + 4 x25 * x79 + 64 x26 * x27 - 40 x26 * x30
   + 82 x26 * x32 - 42 x26 * x33 + 92 x26 * x36 - 10 x26 * x37
   - 14 x26 * x38 - 72 x26 * x40 - 24 x26 * x44 + 30 x26 * x48
   + 16 x26 * x49 - 66 x26 * x51 - 18 x26 * x52 + 22 x26 * x53
   - 90 x26 * x54 + 62 x26 * x55 - 92 x26 * x56 + 16 x26 * x57
   - 20 x26 * x61 - 40 x26 * x62 + 94 x26 * x63 + 2 x26 * x67
   + 90 x26 * x69 - 58 x26 * x70 + 50 x26 * x71 + 70 x26 * x72
   - 60 x26 * x73 - 26 x26 * x77 - 20 x26 * x78 - 14 x27 * x28
   - 18 x27 * x29 - 70 x27 * x30 + 82 x27 * x31 - 76 x27 * x33
   - 26 x27 * x35 - 30 x27 * x37 + 98 x27 * x38 - 12 x27 * x39
   + 2 x27 * x40 + 94 x27 * x41 + 76 x27 * x42 + 16 x27 * x43
   - 54 x27 * x45 - 96 x27 * x48 - 12 x27 * x49 + 48 x27 * x50
   - 6 x27 * x51 - 54 x27 * x53 - 52 x27 * x54 + 28 x27 * x55
   + 20 x27 * x57 + 28 x27 * x61 - 42 x27 * x64 - 90 x27 * x65
   - 2 x27 * x66 + 40 x27 * x67 - 80 x27 * x68 - 76 x27 * x69
   + 86 x27 * x72 + 32 x27 * x75 + 49 x28 ^2 - 80 x28 * x30 + 50 x28 * x32
   - 30 x28 * x33 + 92 x28 * x36 - 78 x28 * x37 + 46 x28 * x38
   + 40 x28 * x39 - 74 x28 * x43 - 76 x28 * x44 - 68 x28 * x46
   + 90 x28 * x48 - 38 x28 * x50 + 74 x28 * x52 + 88 x28 * x55
   - 76 x28 * x57 - 50 x28 * x60 - 26 x28 * x63 - 88 x28 * x64
   - 92 x28 * x65 + 42 x28 * x68 - 60 x28 * x69 - 52 x28 * x70
   - 60 x28 * x71 - 50 x28 * x72 - 70 x28 * x74 + 44 x28 * x76
   - 28 x28 * x78 - 48 x29 * x31 - 34 x29 * x36 + 30 x29 * x39
   + 60 x29 * x41 - 32 x29 * x43 + 82 x29 * x44 + 70 x29 * x46
   - 44 x29 * x50 + 64 x29 * x51 + 64 x29 * x53 + 36 x29 * x55
   - 68 x29 * x60 - 56 x29 * x61 + 28 x29 * x63 - 10 x29 * x64
   + 58 x29 * x65 - 90 x29 * x68 + 72 x29 * x69 + 14 x29 * x70
   + 14 x29 * x71 - 44 x29 * x73 + 60 x29 * x75 - 80 x30 * x31
   - 54 x30 * x34 - 74 x30 * x35 - 80 x30 * x38 - 54 x30 * x39
   + 2 x30 * x40 + 6 x30 * x41 + 18 x30 * x43 - 54 x30 * x46 - 40 x30 * x47
   + 16 x30 * x48 + 70 x30 * x49 + 58 x30 * x51 - 18 x30 * x52
   + 38 x30 * x54 + 56 x30 * x56 - 14 x30 * x59 - 14 x30 * x60
   - 10 x30 * x61 - 62 x30 * x63 - 80 x30 * x66 - 14 x30 * x68
   + 20 x30 * x72 + 8 x30 * x73 - 22 x30 * x74 - 90 x30 * x76
   + 24 x30 * x78 - 46 x31 * x36 + 64 x31 * x37 - 80 x31 * x38
   + 54 x31 * x44 + 8 x31 * x49 - 78 x31 * x50 - 54 x31 * x55
   - 58 x31 * x64 + 50 x31 * x67 + 28 x31 * x68 + 28 x31 * x69
   - 96 x31 * x70 - 8 x31 * x71 + 66 x31 * x72 - 68 x31 * x74
   - 46 x31 * x75 - 78 x31 * x78 - 18 x32 ^2 - 64 x32 * x33 - 58 x32 * x36
   + 92 x32 * x40 + 66 x32 * x41 - 54 x32 * x42 + 74 x32 * x43
   + 54 x32 * x44 - 46 x32 * x45 - 50 x32 * x46 - 38 x32 * x51
   + 74 x32 * x52 - 62 x32 * x54 - 30 x32 * x55 + 98 x32 * x56
   + 24 x32 * x57 + 84 x32 * x62 - 72 x32 * x63 - 58 x32 * x64
   - 8 x32 * x66 + 44 x32 * x67 + 98 x32 * x68 - 42 x32 * x69
   + 30 x32 * x70 - 88 x32 * x72 + 68 x32 * x73 - 4 x32 * x74
   - 48 x32 * x75 - 44 x32 * x78 - 86 x32 * x79 - 45 x33 ^2 + 28 x33 * x34
   + 68 x33 * x35 - 34 x33 * x36 + 34 x33 * x37 + 72 x33 * x38
   + 82 x33 * x39 - 8 x33 * x41 + 56 x33 * x42 - 42 x33 * x43
   + 86 x33 * x45 + 64 x33 * x46 + 42 x33 * x51 - 78 x33 * x52
   + 20 x33 * x57 + 40 x33 * x59 - 62 x33 * x61 + 52 x33 * x62
   + 6 x33 * x64 - 88 x33 * x65 - 34 x33 * x66 - 18 x33 * x68
   + 12 x33 * x70 + 96 x33 * x71 + 64 x33 * x74 - 56 x33 * x75
   + 52 x33 * x76 + 74 x33 * x78 + 90 x33 * x79 - 6 x34 * x35
   + 48 x34 * x36 - 66 x34 * x37 - 92 x34 * x40 + 72 x34 * x45
   + 6 x34 * x47 - 58 x34 * x48 + 74 x34 * x50 - 88 x34 * x51
   - 36 x34 * x55 + 46 x34 * x56 - 92 x34 * x60 - 88 x34 * x62
   + 22 x34 * x63 - 6 x34 * x64 - 78 x34 * x68 - 14 x34 * x69
   + 54 x34 * x70 + 6 x34 * x71 - 84 x34 * x72 + 30 x34 * x76
   - 68 x34 * x78 - 14 x35 ^2 + 20 x35 * x36 + 64 x35 * x39 + 20 x35 * x40
   - 24 x35 * x42 - 62 x35 * x43 + 90 x35 * x48 - 40 x35 * x49
   + 72 x35 * x50 + 42 x35 * x53 - 12 x35 * x54 + 62 x35 * x58
   - 80 x35 * x59 - 6 x35 * x62 + 2 x35 * x63 - 22 x35 * x66 + 20 x35 * x69
   - 74 x35 * x71 - 10 x35 * x72 - 76 x35 * x73 + 38 x35 * x77
   + 38 x35 * x79 - 18 x36 ^2 + 58 x36 * x37 + 78 x36 * x38 + 46 x36 * x39
   + 24 x36 * x40 - 40 x36 * x41 - 34 x36 * x46 + 20 x36 * x48
   - 28 x36 * x49 - 84 x36 * x50 + 62 x36 * x51 + 12 x36 * x56
   + 50 x36 * x60 + 54 x36 * x62 + 74 x36 * x63 + 26 x36 * x69
   - 92 x36 * x70 - 56 x36 * x71 + 10 x36 * x72 - 98 x36 * x75
   + 8 x36 * x78 - 98 x36 * x79 - 5 x37 ^2 - 52 x37 * x38 - 78 x37 * x39
   - 78 x37 * x42 - 44 x37 * x45 - 56 x37 * x47 - 30 x37 * x48
   - 64 x37 * x52 + 30 x37 * x54 - 64 x37 * x55 + 2 x37 * x56
   - 80 x37 * x57 + 92 x37 * x58 + 50 x37 * x59 - 6 x37 * x60
   + 36 x37 * x61 + 98 x37 * x62 - 62 x37 * x63 + 88 x37 * x64
   - 10 x37 * x65 - 6 x37 * x66 - 8 x37 * x67 - 36 x37 * x68 + 20 x37 * x70
   - 30 x37 * x71 - 76 x37 * x77 - 14 x38 ^2 - 20 x38 * x40 - 88 x38 * x43
   - 92 x38 * x45 - 10 x38 * x47 + 80 x38 * x48 - 94 x38 * x51
   - 36 x38 * x53 - 62 x38 * x54 - 82 x38 * x55 - 80 x38 * x56
   - 54 x38 * x60 + 74 x38 * x61 + 30 x38 * x63 - 62 x38 * x65
   - 14 x38 * x70 + 34 x38 * x71 - 34 x38 * x72 - 34 x38 * x73
   - 52 x38 * x75 - 28 x38 * x76 + 68 x38 * x77 - 45 x39 ^2 - 54 x39 * x43
   - 10 x39 * x46 - 28 x39 * x53 + 54 x39 * x55 + 70 x39 * x56
   + 18 x39 * x57 + 44 x39 * x59 - 52 x39 * x61 + 40 x39 * x64
   - 14 x39 * x66 - 58 x39 * x70 + 92 x39 * x71 - 8 x39 * x75
   - 56 x39 * x79 + 31 x40 ^2 + 8 x40 * x41 + 74 x40 * x42 - 50 x40 * x45
   + 68 x40 * x47 - 58 x40 * x51 - 72 x40 * x54 + 76 x40 * x57
   + 60 x40 * x59 - 56 x40 * x60 + 38 x40 * x61 + 84 x40 * x62
   + 18 x40 * x63 - 14 x40 * x64 - 50 x40 * x67 - 46 x40 * x68
   - 72 x40 * x70 - 60 x40 * x71 - 24 x40 * x72 - 64 x40 * x78
   - 46 x41 * x42 + 18 x41 * x44 + 22 x41 * x46 - 24 x41 * x47
   + 36 x41 * x48 - 86 x41 * x49 + 48 x41 * x50 + 86 x41 * x52
   + 18 x41 * x56 - 38 x41 * x57 + 12 x41 * x58 + 64 x41 * x62
   + 4 x41 * x63 - 40 x41 * x67 + 86 x41 * x70 - 52 x41 * x71
   + 54 x41 * x74 + 94 x41 * x77 - 30 x42 ^2 - 30 x42 * x43 - 10 x42 * x44
   + 34 x42 * x46 - 62 x42 * x49 + 80 x42 * x50 + 34 x42 * x51
   - 10 x42 * x52 + 28 x42 * x57 + 62 x42 * x58 + 12 x42 * x60
   - 6 x42 * x62 - 92 x42 * x63 + 38 x42 * x64 + 34 x42 * x65
   - 76 x42 * x66 - 18 x42 * x67 - 14 x42 * x68 + 44 x42 * x70
   + 56 x42 * x73 - 84 x42 * x75 - 76 x42 * x76 - 2 x42 * x78
   - 40 x42 * x79 - 43 x43 ^2 + 56 x43 * x44 + 68 x43 * x48 - 92 x43 * x50
   + 96 x43 * x52 - 42 x43 * x55 + 82 x43 * x57 - 80 x43 * x60
   - 62 x43 * x64 - 34 x43 * x65 - 6 x43 * x66 + 54 x43 * x67
   - 28 x43 * x72 - 56 x43 * x74 + 20 x43 * x75 + 56 x43 * x79 - 26 x44 ^2
   - 72 x44 * x45 + 88 x44 * x46 - 88 x44 * x48 + 54 x44 * x56
   - 30 x44 * x57 - 92 x44 * x58 - 22 x44 * x59 + 78 x44 * x69
   + 20 x44 * x70 + 28 x44 * x72 - 86 x44 * x73 - 6 x44 * x76
   + 54 x44 * x77 + 58 x44 * x78 - 38 x44 * x79 + 98 x45 * x46
   + 72 x45 * x48 - 52 x45 * x50 - 26 x45 * x54 - 34 x45 * x55
   - 46 x45 * x57 - 4 x45 * x58 + 46 x45 * x59 + 56 x45 * x60
   + 40 x45 * x62 - 66 x45 * x67 - 80 x45 * x68 + 40 x45 * x70
   + 46 x45 * x71 + 24 x45 * x76 + 80 x45 * x77 - 98 x45 * x79 + 23 x46 ^2
   + 86 x46 * x50 - 36 x46 * x52 - 16 x46 * x53 + 98 x46 * x54
   - 70 x46 * x56 + 66 x46 * x57 + 74 x46 * x59 + 76 x46 * x60
   + 72 x46 * x62 - 62 x46 * x63 - 86 x46 * x64 + 52 x46 * x71
   - 80 x46 * x72 + 94 x46 * x73 + 48 x46 * x75 + 16 x46 * x77
   + 68 x46 * x79 + 60 x47 * x50 + 4 x47 * x52 - 48 x47 * x54
   - 32 x47 * x55 + 94 x47 * x56 + 26 x47 * x66 - 40 x47 * x67
   - 56 x47 * x69 - 80 x47 * x71 - 8 x47 * x73 + 54 x47 * x74
   - 72 x47 * x75 - 38 x47 * x76 + 28 x47 * x78 - 45 x48 ^2 - 60 x48 * x50
   - 84 x48 * x51 + 68 x48 * x52 + 44 x48 * x55 - 82 x48 * x56
   - 98 x48 * x58 + 44 x48 * x59 + 66 x48 * x66 - 14 x48 * x67
   - 22 x48 * x69 - 68 x48 * x70 - 74 x48 * x71 + 66 x48 * x73
   - 20 x48 * x75 + 54 x48 * x76 - 44 x48 * x77 + 38 x48 * x78
   - 28 x48 * x79 + 7 x49 ^2 - 64 x49 * x50 + 50 x49 * x54 + 16 x49 * x55
   - 40 x49 * x58 - 82 x49 * x61 - 96 x49 * x65 - 36 x49 * x67
   + 86 x49 * x71 - 46 x49 * x73 + 78 x49 * x75 - 36 x49 * x76
   + 26 x50 * x54 + 44 x50 * x55 + 78 x50 * x57 - 64 x50 * x58
   - 28 x50 * x60 - 84 x50 * x62 + 24 x50 * x63 + 24 x50 * x64
   - 26 x50 * x70 + 70 x50 * x71 + 52 x50 * x72 + 46 x50 * x74
   - 80 x50 * x75 + 46 x50 * x76 - 82 x50 * x77 + 82 x50 * x78
   + 62 x50 * x79 + 41 x51 ^2 + 14 x51 * x53 - 86 x51 * x54 - 96 x51 * x56
   - 58 x51 * x57 + 70 x51 * x59 + 80 x51 * x60 + 6 x51 * x65
   - 46 x51 * x66 + 86 x51 * x67 - 6 x51 * x70 - 12 x51 * x71
   + 98 x51 * x72 - 30 x51 * x73 + 48 x51 * x74 + 48 x51 * x75
   - 18 x51 * x76 - 70 x51 * x77 + 34 x51 * x78 - 80 x52 * x53
   + 28 x52 * x55 + 70 x52 * x57 - 78 x52 * x60 + 4 x52 * x62
   - 22 x52 * x63 - 86 x52 * x66 - 96 x52 * x71 - 24 x52 * x72
   + 64 x52 * x73 - 96 x52 * x75 - 52 x52 * x76 - 60 x52 * x77 - 45 x53 ^2
   - 30 x53 * x56 + 50 x53 * x61 - 24 x53 * x63 - 96 x53 * x65
   + 54 x53 * x66 + 2 x53 * x70 - 88 x53 * x71 + 46 x53 * x75 - 4 x53 * x77
   - 10 x53 * x78 - 6 x53 * x79 - 4 x54 ^2 - 80 x54 * x58 + 72 x54 * x63
   - 72 x54 * x64 + 4 x54 * x69 - 60 x54 * x70 - 80 x54 * x71
   - 98 x54 * x72 + 64 x54 * x73 + 92 x54 * x77 - 70 x54 * x79 - 14 x55 ^2
   - 54 x55 * x58 - 76 x55 * x59 - 52 x55 * x63 - 60 x55 * x64
   + 50 x55 * x65 + 34 x55 * x66 + 94 x55 * x67 - 44 x55 * x68
   - 34 x55 * x69 + 44 x55 * x70 - 26 x55 * x71 + 92 x55 * x74
   - 6 x55 * x77 + 2 x55 * x79 - 41 x56 ^2 + 32 x56 * x57 + 32 x56 * x58
   - 30 x56 * x60 - 40 x56 * x61 + 58 x56 * x64 + 4 x56 * x65
   - 34 x56 * x67 - 36 x56 * x68 + 18 x56 * x69 - 94 x56 * x71
   + 88 x56 * x73 + 14 x56 * x74 + 82 x56 * x77 + 76 x56 * x78 + 28 x57 ^2
   + 76 x57 * x59 + 86 x57 * x62 - 80 x57 * x63 + 86 x57 * x64
   - 40 x57 * x66 + 58 x57 * x68 + 30 x57 * x69 - 58 x57 * x71
   + 92 x57 * x72 + 62 x57 * x73 + 50 x57 * x74 + 96 x57 * x75
   + 78 x57 * x77 - 30 x58 * x59 + 60 x58 * x61 + 22 x58 * x62
   + 84 x58 * x64 + 30 x58 * x66 + 34 x58 * x68 - 68 x58 * x69
   + 68 x58 * x73 - 2 x58 * x74 - 70 x58 * x75 + 48 x58 * x78
   - 78 x59 * x60 + 16 x59 * x61 + 54 x59 * x63 + 24 x59 * x67
   + 16 x59 * x68 + 84 x59 * x70 - 6 x59 * x71 - 72 x59 * x73
   - 14 x59 * x74 - 92 x59 * x75 - 64 x59 * x76 - 12 x60 ^2 + 8 x60 * x62
   + 60 x60 * x66 - 20 x60 * x68 - 50 x60 * x69 - 58 x60 * x70
   - 84 x60 * x71 - 34 x60 * x73 + 8 x60 * x77 + 26 x60 * x78
   - 50 x60 * x79 + 12 x61 * x62 + 10 x61 * x63 - 4 x61 * x64
   + 52 x61 * x66 - 60 x61 * x69 - 90 x61 * x72 - 94 x61 * x76
   + 62 x61 * x77 + 16 x62 ^2 + 36 x62 * x63 + 64 x62 * x65 - 64 x62 * x66
   - 36 x62 * x67 + 14 x62 * x68 + 98 x62 * x69 - 10 x62 * x71
   - 76 x62 * x72 + 92 x62 * x73 - 20 x62 * x74 - 32 x62 * x75
   - 92 x62 * x77 - 22 x62 * x78 - 56 x62 * x79 + 39 x63 ^2 + 94 x63 * x64
   + 46 x63 * x68 + 40 x63 * x69 - 70 x63 * x70 + 66 x63 * x71
   + 58 x63 * x72 + 70 x63 * x74 - 52 x63 * x75 + 16 x63 * x77
   - 44 x63 * x79 + 12 x64 ^2 + 26 x64 * x65 + 56 x64 * x67 + 50 x64 * x68
   - 74 x64 * x69 - 52 x64 * x72 - 66 x64 * x74 + 28 x64 * x75 - 42 x65 ^2
   + 40 x65 * x66 + 96 x65 * x67 - 14 x65 * x69 + 92 x65 * x73
   - 24 x65 * x74 + 20 x65 * x75 + 88 x65 * x76 - 30 x65 * x77
   - 44 x65 * x79 - 9 x66 ^2 - 48 x66 * x70 - 16 x66 * x73 - 18 x66 * x74
   - 8 x66 * x76 + 96 x66 * x77 + 19 x67 ^2 - 6 x67 * x69 - 62 x67 * x70
   - 68 x67 * x71 + 20 x67 * x73 - 96 x67 * x75 + 2 x67 * x77
   + 20 x68 * x69 + 6 x68 * x70 - 56 x68 * x73 + 24 x68 * x75
   - 72 x68 * x76 + 94 x68 * x79 + 12 x69 ^2 - 46 x69 * x70 - 34 x69 * x72
   + 22 x69 * x73 + 20 x69 * x74 - 94 x69 * x77 - 40 x69 * x79
   - 16 x70 * x71 + 2 x70 * x72 + 90 x70 * x73 + 50 x70 * x78
   - 52 x71 * x73 - 80 x71 * x75 + 72 x71 * x77 + 98 x71 * x79 + 10 x72 ^2
   + 90 x72 * x73 + 92 x72 * x74 + 98 x72 * x76 + 20 x72 * x79 - 35 x73 ^2
   - 4 x73 * x76 + 42 x73 * x77 - 82 x73 * x78 - 34 x74 * x76
   - 82 x74 * x77 + 22 x75 ^2 + 70 x75 * x76 + 40 x75 * x77 + 2 x75 * x78
   + 4 x76 ^2 - 24 x76 * x77 + 80 x77 * x78 + 2 x77 * x79 + 43 x78 ^2
   + 30 x78 * x79 ] / 2 
Subject To
Bounds
 x0 <= 1
 x1 <= 1
 x2 <= 1
 x3 <= 1
 x4 <= 1
 x5 <= 1
 x6 <= 1
 x7 <= 1
 x8 <= 1
 x9 <= 1
 x10 <= 1
 x11 <= 1
 x12 <= 1
 x13 <= 1
 x14 <= 1
 x15 <= 1
 x16 <= 1
 x17 <= 1
 x18 <= 1
 x19 <= 1
 x20 <= 1
 x21 <= 1
 x22 <= 1
 x23 <= 1
 x24 <= 1
 x25 <= 1
 x26 <= 1
 x27 <= 1
 x28 <= 1
 x29 <= 1
 x30 <= 1
 x31 <= 1
 x32 <= 1
 x33 <= 1
 x34 <= 1
 x35 <= 1
 x36 <= 1
 x37 <= 1
 x38 <= 1
 x39 <= 1
 x40 <= 1
 x41 <= 1
 x42 <= 1
 x43 <= 1
 x44 <= 1
 x45 <= 1
 x46 <= 1
 x47 <= 1
 x48 <= 1
 x49 <= 1
 x50 <= 1
 x51 <= 1
 x52 <= 1
 x53 <= 1
 x54 <= 1
 x55 <= 1
 x56 <= 1
 x57 <= 1
 x58 <= 1
 x59 <= 1
 x60 <= 1
 x61 <= 1
 x62 <= 1
 x63 <= 1
 x64 <= 1
 x65 <= 1
 x66 <= 1
 x67 <= 1
 x68 <= 1
 x69 <= 1
 x70 <= 1
 x71 <= 1
 x72 <= 1
 x73 <= 1
 x74 <= 1
 x75 <= 1
 x76 <= 1
 x77 <= 1
 x78 <= 1
 x79 <= 1
End
